<instance format="XCSP3" type="COP">
  <variables>
    <array id="X" size="[3]"> 1..3 </array>
  </variables>
  <constraints>
    <allDifferent> X[] </allDifferent>
  </constraints>
  <objectives>
    <minimize> X[2] </minimize>
  </objectives>
</instance>
